4 
5  08 21 45 
6  01 16 30 45 
7  02 17 32 47 
8  02 17 32 47 
9  02 17 32 47 
10  04 19 34 49 
11  04 19 34 49 
12  04 19 34 49 
13  04 20 35 50 
14  05 20 35 50 
15  04 18 33 48 
16  03 18 33 48 
17  03 18 33 48 
18  03 18 33 48 
19  04 18 33 48 
20  03 18 33 48 
21  03 18 33 
22  03 
23  
0 
